Hf8 Mo16
1.0
7.584994 0.000000 0.000000
0.000000 7.584994 0.000000
0.000000 0.000000 7.584994
Hf Mo
8 16
direct
0.500000 0.000000 0.500000 Hf
0.250000 0.250000 0.250000 Hf
0.500000 0.500000 0.000000 Hf
0.250000 0.750000 0.750000 Hf
0.000000 0.000000 0.000000 Hf
0.750000 0.250000 0.750000 Hf
0.000000 0.500000 0.500000 Hf
0.750000 0.750000 0.250000 Hf
0.125000 0.625000 0.125000 Mo
0.125000 0.875000 0.375000 Mo
0.375000 0.625000 0.375000 Mo
0.375000 0.875000 0.125000 Mo
0.125000 0.125000 0.625000 Mo
0.125000 0.375000 0.875000 Mo
0.375000 0.125000 0.875000 Mo
0.375000 0.375000 0.625000 Mo
0.625000 0.625000 0.625000 Mo
0.625000 0.875000 0.875000 Mo
0.875000 0.625000 0.875000 Mo
0.875000 0.875000 0.625000 Mo
0.625000 0.125000 0.125000 Mo
0.625000 0.375000 0.375000 Mo
0.875000 0.125000 0.375000 Mo
0.875000 0.375000 0.125000 Mo
