k-points for bandstructure G-H-N-P-G
10
line
reciprocal
0.0000000000	0.0000000000	0.0000000000    !G
0.5000000000	-0.5000000000	0.5000000000    !H

0.5000000000	-0.5000000000	0.5000000000    !H
0.0000000000	0.0000000000	0.5000000000    !N

0.0000000000	0.0000000000	0.5000000000    !N
0.2500000000	0.2500000000	0.2500000000    !P

0.2500000000	0.2500000000	0.2500000000    !P
0.0000000000	0.0000000000	0.0000000000    !G