Al4
1.0
   5.0000000000000000    0.0000000000000000    0.0000000000000000
   0.0000000000000000    5.0000000000000000    0.0000000000000000
   0.0000000000000000    0.0000000000000000    5.0000000000000000
Al
4
direct
   0.0000000000000000    0.0000000000000000    0.0000000000000000 Al
   0.0000000000000000    0.5000000000000000    0.5000000000000000 Al
   0.5000000000000000    0.0000000000000000    0.5000000000000000 Al
   0.5000000000000000    0.5000000000000000    0.0000000000000000 Al
